letting n =  10
letting blocks =  [[1, 4], [1, 7], [2, 7], [2, 8], [3, 1], [3, 3], [3, 5], [3, 7], [3, 9], [4, 3], [4, 4], [4, 5], [4, 9], [4, 10], [5, 1], [5, 2], [5, 5], [5, 6], [5, 10], [6, 9], [7, 3], [7, 9], [8, 6], [8, 7], [8, 10], [9, 1], [9, 3], [9, 6], [9, 8], [9, 10], [10, 1], [10, 2], [10, 3], [10, 4], [10, 5], [10, 6]]
